c File: flat50_3_0.col
c
c SOURCE: Joseph Culberson (joe@cs.ualberta.ca)
c DESCRIPTION: Quasi-random coloring problem
c              generated with flatness = 0
c                             probability = 0.139
c                             known coloring = 3
c                             random seed = 1087
c              Creation Date:  Tue Jun  9 12:00:50 1998
c Maximum degree = 8 Minimum degree = 1
c p edge 50 115
c cnf created by edge2cnf
p cnf 150 545
-1 -2 0
-1 -3 0
-2 -3 0
1 2 3 0
-4 -5 0
-4 -6 0
-5 -6 0
4 5 6 0
-7 -8 0
-7 -9 0
-8 -9 0
7 8 9 0
-10 -11 0
-10 -12 0
-11 -12 0
10 11 12 0
-13 -14 0
-13 -15 0
-14 -15 0
13 14 15 0
-16 -17 0
-16 -18 0
-17 -18 0
16 17 18 0
-19 -20 0
-19 -21 0
-20 -21 0
19 20 21 0
-22 -23 0
-22 -24 0
-23 -24 0
22 23 24 0
-25 -26 0
-25 -27 0
-26 -27 0
25 26 27 0
-28 -29 0
-28 -30 0
-29 -30 0
28 29 30 0
-31 -32 0
-31 -33 0
-32 -33 0
31 32 33 0
-34 -35 0
-34 -36 0
-35 -36 0
34 35 36 0
-37 -38 0
-37 -39 0
-38 -39 0
37 38 39 0
-40 -41 0
-40 -42 0
-41 -42 0
40 41 42 0
-43 -44 0
-43 -45 0
-44 -45 0
43 44 45 0
-46 -47 0
-46 -48 0
-47 -48 0
46 47 48 0
-49 -50 0
-49 -51 0
-50 -51 0
49 50 51 0
-52 -53 0
-52 -54 0
-53 -54 0
52 53 54 0
-55 -56 0
-55 -57 0
-56 -57 0
55 56 57 0
-58 -59 0
-58 -60 0
-59 -60 0
58 59 60 0
-61 -62 0
-61 -63 0
-62 -63 0
61 62 63 0
-64 -65 0
-64 -66 0
-65 -66 0
64 65 66 0
-67 -68 0
-67 -69 0
-68 -69 0
67 68 69 0
-70 -71 0
-70 -72 0
-71 -72 0
70 71 72 0
-73 -74 0
-73 -75 0
-74 -75 0
73 74 75 0
-76 -77 0
-76 -78 0
-77 -78 0
76 77 78 0
-79 -80 0
-79 -81 0
-80 -81 0
79 80 81 0
-82 -83 0
-82 -84 0
-83 -84 0
82 83 84 0
-85 -86 0
-85 -87 0
-86 -87 0
85 86 87 0
-88 -89 0
-88 -90 0
-89 -90 0
88 89 90 0
-91 -92 0
-91 -93 0
-92 -93 0
91 92 93 0
-94 -95 0
-94 -96 0
-95 -96 0
94 95 96 0
-97 -98 0
-97 -99 0
-98 -99 0
97 98 99 0
-100 -101 0
-100 -102 0
-101 -102 0
100 101 102 0
-103 -104 0
-103 -105 0
-104 -105 0
103 104 105 0
-106 -107 0
-106 -108 0
-107 -108 0
106 107 108 0
-109 -110 0
-109 -111 0
-110 -111 0
109 110 111 0
-112 -113 0
-112 -114 0
-113 -114 0
112 113 114 0
-115 -116 0
-115 -117 0
-116 -117 0
115 116 117 0
-118 -119 0
-118 -120 0
-119 -120 0
118 119 120 0
-121 -122 0
-121 -123 0
-122 -123 0
121 122 123 0
-124 -125 0
-124 -126 0
-125 -126 0
124 125 126 0
-127 -128 0
-127 -129 0
-128 -129 0
127 128 129 0
-130 -131 0
-130 -132 0
-131 -132 0
130 131 132 0
-133 -134 0
-133 -135 0
-134 -135 0
133 134 135 0
-136 -137 0
-136 -138 0
-137 -138 0
136 137 138 0
-139 -140 0
-139 -141 0
-140 -141 0
139 140 141 0
-142 -143 0
-142 -144 0
-143 -144 0
142 143 144 0
-145 -146 0
-145 -147 0
-146 -147 0
145 146 147 0
-148 -149 0
-148 -150 0
-149 -150 0
148 149 150 0
-79 -1 0
-80 -2 0
-81 -3 0
-94 -1 0
-95 -2 0
-96 -3 0
-106 -1 0
-107 -2 0
-108 -3 0
-133 -1 0
-134 -2 0
-135 -3 0
-88 -4 0
-89 -5 0
-90 -6 0
-118 -4 0
-119 -5 0
-120 -6 0
-121 -7 0
-122 -8 0
-123 -9 0
-133 -7 0
-134 -8 0
-135 -9 0
-61 -10 0
-62 -11 0
-63 -12 0
-70 -10 0
-71 -11 0
-72 -12 0
-106 -10 0
-107 -11 0
-108 -12 0
-142 -10 0
-143 -11 0
-144 -12 0
-52 -13 0
-53 -14 0
-54 -15 0
-76 -13 0
-77 -14 0
-78 -15 0
-61 -16 0
-62 -17 0
-63 -18 0
-76 -16 0
-77 -17 0
-78 -18 0
-79 -16 0
-80 -17 0
-81 -18 0
-130 -16 0
-131 -17 0
-132 -18 0
-79 -19 0
-80 -20 0
-81 -21 0
-85 -19 0
-86 -20 0
-87 -21 0
-103 -19 0
-104 -20 0
-105 -21 0
-115 -19 0
-116 -20 0
-117 -21 0
-118 -19 0
-119 -20 0
-120 -21 0
-148 -19 0
-149 -20 0
-150 -21 0
-64 -22 0
-65 -23 0
-66 -24 0
-67 -25 0
-68 -26 0
-69 -27 0
-82 -25 0
-83 -26 0
-84 -27 0
-97 -25 0
-98 -26 0
-99 -27 0
-118 -25 0
-119 -26 0
-120 -27 0
-124 -25 0
-125 -26 0
-126 -27 0
-130 -25 0
-131 -26 0
-132 -27 0
-148 -25 0
-149 -26 0
-150 -27 0
-55 -28 0
-56 -29 0
-57 -30 0
-70 -28 0
-71 -29 0
-72 -30 0
-73 -28 0
-74 -29 0
-75 -30 0
-133 -28 0
-134 -29 0
-135 -30 0
-142 -28 0
-143 -29 0
-144 -30 0
-61 -31 0
-62 -32 0
-63 -33 0
-70 -31 0
-71 -32 0
-72 -33 0
-85 -31 0
-86 -32 0
-87 -33 0
-121 -31 0
-122 -32 0
-123 -33 0
-142 -31 0
-143 -32 0
-144 -33 0
-52 -34 0
-53 -35 0
-54 -36 0
-79 -34 0
-80 -35 0
-81 -36 0
-85 -34 0
-86 -35 0
-87 -36 0
-94 -34 0
-95 -35 0
-96 -36 0
-127 -34 0
-128 -35 0
-129 -36 0
-136 -34 0
-137 -35 0
-138 -36 0
-139 -34 0
-140 -35 0
-141 -36 0
-55 -37 0
-56 -38 0
-57 -39 0
-67 -37 0
-68 -38 0
-69 -39 0
-88 -37 0
-89 -38 0
-90 -39 0
-100 -37 0
-101 -38 0
-102 -39 0
-109 -37 0
-110 -38 0
-111 -39 0
-139 -37 0
-140 -38 0
-141 -39 0
-145 -37 0
-146 -38 0
-147 -39 0
-55 -40 0
-56 -41 0
-57 -42 0
-70 -40 0
-71 -41 0
-72 -42 0
-76 -40 0
-77 -41 0
-78 -42 0
-136 -40 0
-137 -41 0
-138 -42 0
-145 -40 0
-146 -41 0
-147 -42 0
-55 -43 0
-56 -44 0
-57 -45 0
-67 -43 0
-68 -44 0
-69 -45 0
-85 -43 0
-86 -44 0
-87 -45 0
-91 -43 0
-92 -44 0
-93 -45 0
-118 -43 0
-119 -44 0
-120 -45 0
-145 -43 0
-146 -44 0
-147 -45 0
-148 -43 0
-149 -44 0
-150 -45 0
-109 -46 0
-110 -47 0
-111 -48 0
-112 -46 0
-113 -47 0
-114 -48 0
-130 -46 0
-131 -47 0
-132 -48 0
-148 -46 0
-149 -47 0
-150 -48 0
-58 -49 0
-59 -50 0
-60 -51 0
-61 -49 0
-62 -50 0
-63 -51 0
-67 -49 0
-68 -50 0
-69 -51 0
-127 -49 0
-128 -50 0
-129 -51 0
-139 -49 0
-140 -50 0
-141 -51 0
-142 -49 0
-143 -50 0
-144 -51 0
-124 -52 0
-125 -53 0
-126 -54 0
-142 -52 0
-143 -53 0
-144 -54 0
-112 -55 0
-113 -56 0
-114 -57 0
-133 -55 0
-134 -56 0
-135 -57 0
-121 -58 0
-122 -59 0
-123 -60 0
-109 -61 0
-110 -62 0
-111 -63 0
-112 -61 0
-113 -62 0
-114 -63 0
-127 -61 0
-128 -62 0
-129 -63 0
-136 -61 0
-137 -62 0
-138 -63 0
-109 -64 0
-110 -65 0
-111 -66 0
-112 -64 0
-113 -65 0
-114 -66 0
-118 -64 0
-119 -65 0
-120 -66 0
-103 -67 0
-104 -68 0
-105 -69 0
-109 -67 0
-110 -68 0
-111 -69 0
-118 -67 0
-119 -68 0
-120 -69 0
-127 -67 0
-128 -68 0
-129 -69 0
-112 -70 0
-113 -71 0
-114 -72 0
-124 -70 0
-125 -71 0
-126 -72 0
-130 -70 0
-131 -71 0
-132 -72 0
-115 -73 0
-116 -74 0
-117 -75 0
-127 -73 0
-128 -74 0
-129 -75 0
-130 -73 0
-131 -74 0
-132 -75 0
-109 -76 0
-110 -77 0
-111 -78 0
-142 -76 0
-143 -77 0
-144 -78 0
-103 -79 0
-104 -80 0
-105 -81 0
-121 -82 0
-122 -83 0
-123 -84 0
-103 -85 0
-104 -86 0
-105 -87 0
-136 -85 0
-137 -86 0
-138 -87 0
-103 -88 0
-104 -89 0
-105 -90 0
-115 -88 0
-116 -89 0
-117 -90 0
-127 -88 0
-128 -89 0
-129 -90 0
-148 -88 0
-149 -89 0
-150 -90 0
-136 -91 0
-137 -92 0
-138 -93 0
-118 -94 0
-119 -95 0
-120 -96 0
-139 -97 0
-140 -98 0
-141 -99 0
-142 -97 0
-143 -98 0
-144 -99 0
-139 -100 0
-140 -101 0
-141 -102 0
